# ── SNIPPET: orca_input_template_generation/wb97xv_def2tzvp_singlepoint_template_with_bond_order_outputs ─
# Scheduler:   any
# Tool:        orca
# Tested:      golddigr
# Notes: From run_orca_wbo.sh.
# ────────────────────────────────────────────────────────────

cat > "{{MOL}}.inp" <<EOF
! wB97X-V def2-TZVP def2/J defgrid3 RIJCOSX CHELPG Loewdin Mayer
%scf
  MaxIter 500
end
%pal
  nproc {{NPROC:-4}}
end
%maxcore {{MAXCORE:-1000}}
%base "{{MOL}}"
*xyzfile {{CHARGE}} {{MULT}} {{XYZ_FILE}}
EOF
